
Gurobi 7.0.2 (linux64, Python) logging started Mon May  8 17:08:57 2017


Gurobi 7.0.2 (linux64, Python) logging started Mon May  8 17:48:18 2017


Gurobi 7.0.2 (linux64, Python) logging started Mon May  8 17:50:49 2017


Gurobi 7.0.2 (linux64, Python) logging started Mon May  8 17:51:00 2017


Gurobi 7.0.2 (linux64, Python) logging started Mon May  8 17:51:28 2017


Gurobi 7.0.2 (linux64, Python) logging started Wed May 10 17:38:30 2017


Gurobi 7.0.2 (linux64, Python) logging started Wed May 10 18:49:05 2017


Gurobi 7.0.2 (linux64, Python) logging started Wed May 10 20:09:05 2017


Gurobi 7.0.2 (linux64, Python) logging started Wed May 10 23:03:17 2017


Gurobi 7.0.2 (linux64, Python) logging started Thu May 11 00:19:19 2017


Gurobi 7.0.2 (linux64, Python) logging started Thu May 11 01:55:39 2017


Gurobi 7.0.2 (linux64, Python) logging started Thu May 11 04:08:09 2017


Gurobi 7.0.2 (linux64, Python) logging started Thu May 11 06:23:08 2017


Gurobi 7.0.2 (linux64, Python) logging started Thu May 11 07:42:34 2017


Gurobi 7.0.2 (linux64, Python) logging started Fri Jun  8 12:51:53 2018


Gurobi 7.0.2 (linux64, Python) logging started Fri Aug 24 15:29:34 2018


Gurobi 7.0.2 (linux64, Python) logging started Fri Aug 24 15:43:36 2018


Gurobi 7.0.2 (linux64, Python) logging started Fri Aug 24 16:10:39 2018


Gurobi 7.0.2 (linux64, Python) logging started Fri Aug 24 16:36:47 2018


Gurobi 7.0.2 (linux64, Python) logging started Fri Aug 24 17:10:30 2018


Gurobi 7.0.2 (linux64, Python) logging started Fri Aug 24 17:56:37 2018


Gurobi 7.0.2 (linux64, Python) logging started Fri Aug 24 18:56:58 2018


Gurobi 7.0.2 (linux64, Python) logging started Fri Aug 24 19:11:47 2018

